200 98
1 52
1 63
2 43
2 108
5 62
5 78
5 195
7 176
10 98
12 26
13 72
15 95
16 80
16 114
17 64
18 78
18 90
24 97
24 170
25 44
28 164
29 148
30 31
30 152
31 40
34 167
37 98
38 176
39 179
41 175
44 138
44 159
45 137
46 177
47 172
49 117
49 140
52 53
53 74
54 90
55 156
56 73
57 149
63 163
64 126
64 144
64 168
64 200
66 89
70 80
70 159
72 166
72 199
73 75
73 197
76 92
79 176
80 131
80 169
81 181
82 147
82 156
83 92
88 95
88 173
90 118
90 178
91 117
96 143
97 198
98 167
102 151
105 158
106 110
110 162
110 197
112 189
114 183
115 195
115 199
117 120
118 131
118 151
118 157
118 164
122 192
127 156
130 134
130 192
132 195
136 152
147 167
151 179
153 164
154 166
170 182
171 180
180 190
